%
% Generated Sudoku 16x16
% Density approximation: 0.50
%
x = array2d(1..n, 1..n, [
   4,   7,   5,   _,   9,  11,  16,  15,   _,   6,   3,   _,   2,   1,   _,  13,
  11,   6,   9,   _,  14,  13,  10,   7,   2,   _,  15,   _,   _,  16,   _,  12,
   _,  15,   3,  16,   1,   2,   _,   8,   9,  13,   _,   7,   _,   6,   5,   _,
  14,   2,   1,   _,   _,   _,   6,   5,   _,   4,   _,  11,   _,   _,   _,   7,
   _,   3,   _,   9,   _,   6,   _,  14,   _,   _,   _,  15,   _,   _,   7,   8,
   _,  11,   6,   _,   _,   _,   _,   2,  13,   _,   _,  16,   _,   _,  12,   _,
   8,  10,  16,  15,   _,   _,  12,   1,   _,   7,   _,   _,   _,   _,   2,  11,
  13,   1,   _,   _,   _,   9,   _,  11,   8,   _,   _,  12,   _,   _,   _,  16,
   1,   9,   _,   _,  13,   8,   3,   _,   7,  15,   _,   4,   _,   _,   _,   5,
   _,   4,   _,   3,  11,   _,   9,   6,  12,   5,  14,   _,   _,   _,   _,   2,
   6,   5,   _,   _,   _,   4,   _,   _,   _,   _,   _,   1,   3,   _,   _,   9,
  15,   _,   _,   _,   _,   _,   _,   _,   _,   _,   9,   3,   _,   _,   6,   _,
   _,  14,   _,   _,   _,  16,   _,   _,  15,  12,   _,   _,   9,   _,   _,  10,
   9,   _,  15,  10,   _,   5,   _,   _,   3,  16,   _,   _,  12,   _,   _,   _,
   3,   _,   _,   6,  12,   _,   _,   _,   1,   _,   _,   _,   5,   2,   4,  15,
   2,   _,   4,   _,   _,   _,   _,   3,   _,   9,   8,   _,   _,  13,  16,   6
]);

n = 16;
